************************************************************************
file with basedata            : mm53_.bas
initial value random generator: 1447120515
************************************************************************
projects                      :  1
jobs (incl. supersource/sink ):  12
horizon                       :  77
RESOURCES
  - renewable                 :  2   R
  - nonrenewable              :  2   N
  - doubly constrained        :  0   D
************************************************************************
PROJECT INFORMATION:
pronr.  #jobs rel.date duedate tardcost  MPM-Time
    1     10      0       19        9       19
************************************************************************
PRECEDENCE RELATIONS:
jobnr.    #modes  #successors   successors
   1        1          3           2   3   4
   2        3          2           5   6
   3        3          2           5   8
   4        3          2          10  11
   5        3          1           7
   6        3          1           8
   7        3          1          10
   8        3          3           9  10  11
   9        3          1          12
  10        3          1          12
  11        3          1          12
  12        1          0        
************************************************************************
REQUESTS/DURATIONS:
jobnr. mode duration  R 1  R 2  N 1  N 2
------------------------------------------------------------------------
  1      1     0       0    0    0    0
  2      1     7       7    9    9    7
         2     7       8    9    5    7
         3    10       5    8    4    6
  3      1     4       2    7    8    9
         2     7       2    6    7    8
         3     9       1    3    5    7
  4      1     2       6    9    7    8
         2     4       6    7    5    8
         3     6       3    4    3    8
  5      1     2       7    7    6    4
         2     2       8    6    7    4
         3     4       6    4    2    4
  6      1     4       2    9    9   10
         2     5       2    6    8    6
         3    10       2    2    8    4
  7      1     2       8   10    7    7
         2     5       8    8    7    5
         3     6       8    7    6    1
  8      1     4       7    9    6    7
         2     6       7    7    6    7
         3     8       6    5    6    6
  9      1     2       7    6   10    9
         2     4       7    4    8    9
         3    10       4    2    6    9
 10      1     2       7    8    4    7
         2     4       5    8    3    5
         3     4       6    8    2    5
 11      1     4       7    9    9    8
         2     5       7    9    9    6
         3    10       5    9    9    4
 12      1     0       0    0    0    0
************************************************************************
RESOURCEAVAILABILITIES:
  R 1  R 2  N 1  N 2
   17   20   56   58
************************************************************************
MAXIMAL LAGS:
from  to  type  delay
    1   12   ES      0
    1    2   ES      0
    2   12   ES      0
    1    3   ES      0
    3   12   ES      0
    1    4   ES      0
    4   12   ES      0
    1    5   ES      0
    5   12   ES      0
    1    6   ES      0
    6   12   ES      0
    1    7   ES      0
    7   12   ES      0
    1    8   ES      0
    8   12   ES      0
    1    9   ES      0
    9   12   ES      0
    1   10   ES      0
   10   12   ES      0
    1   11   ES      0
   11   12   ES      0
    1   12   ES      0
    2    5   SS     -4
    2    5   SE      1
    2    5   ES     10
    2    5   EE    -12
    2    6   SS      1
    2    6   SE      1
    6    2   SE      0
    2    6   ES      0
    2    6   EE     -4
    3    5   SS     -6
    3    5   SE     12
    3    5   ES      3
    3    5   EE     -4
    3    8   SS      7
    3    8   SE    -12
    3    8   ES      8
    3    8   EE     10
    4   10   SS      0
    4   10   SE    -11
    4   10   ES     10
    4   10   EE     12
    4   11   SS      2
    4   11   SE     -8
    4   11   ES      9
    4   11   EE     10
    5    7   SS     -5
    5    7   SE    -10
    5    7   ES      8
    5    7   EE     -9
    6    8   SS     -9
    6    8   SE     -7
    6    8   ES      3
    6    8   EE    -10
    7   10   SS     -7
    7   10   SE      5
    7   10   ES     -2
    7   10   EE     -7
    8    9   SS     11
    8    9   SE     -4
    8    9   ES      9
    8    9   EE     10
    8   10   SS     10
    8   10   SE      0
    8   10   ES     -3
    8   10   EE      5
    8   11   SS     -3
    8   11   SE     -3
    8   11   ES      6
    8   11   EE     -4
************************************************************************
